files/upTests/tuple-of-setsn2/0001.eprime.solution
language ESSENCE' 1.0
$ minion Nodes: 2
$ minion TotalTime: 0.000916
$ Savile Row TotalTime: 0.355
letting a_tuple1 be 0
letting c_tuple1 be 0
letting c_tuple3_tuple2_tuple1 be 3
letting c_tuple3_tuple2_tuple2 be 1
letting c_tuple3_tuple1_ExplicitVarSize_tuple2 be [3, 4]
letting c_tuple3_tuple1_ExplicitVarSize_tuple1 be [1, 1]
letting c_tuple2_ExplicitVarSize_tuple2 be [3, 4]
letting c_tuple2_ExplicitVarSize_tuple1 be [1, 1]
